objective value:                                    0
new_sol_var_1                                       1 	(obj:0)
new_sol_var_2                                       1 	(obj:0)
new_sol_var_9                                       1 	(obj:0)
new_sol_var_10                                      1 	(obj:0)
new_sol_var_11                                      1 	(obj:0)
new_sol_var_12                                      1 	(obj:0)
new_sol_var_13                                      1 	(obj:0)
new_sol_var_14                                      1 	(obj:0)
x_1                                                 6 	(obj:0)
x_2                                                 3 	(obj:0)
x_3                                                 4 	(obj:0)
x_4                                                 5 	(obj:0)
x_5                                                 4 	(obj:0)
x_6                                                 5 	(obj:0)
x_7                                                 3 	(obj:0)
x_8                                                 4 	(obj:0)
x_9                                                 5 	(obj:0)
x_10                                                2 	(obj:0)
x_11                                                4 	(obj:0)
x_12                                                6 	(obj:0)
x_13                                                4 	(obj:0)
x_14                                                4 	(obj:0)
x_0                                                 7 	(obj:0)
